29
57
Academic license - for non-commercial use only
Optimize a model with 1663 rows, 892 columns and 289469 nonzeros
Variable types: 0 continuous, 892 integer (892 binary)
Coefficient statistics:
  Matrix range     [1e+00, 1e+00]
  Objective range  [2e+04, 1e+05]
  Bounds range     [1e+00, 1e+00]
  RHS range        [1e+00, 1e+00]
Found heuristic solution: objective 177207
Presolve removed 98 rows and 39 columns
Presolve time: 0.57s
Presolved: 1565 rows, 853 columns, 271870 nonzeros
Variable types: 0 continuous, 853 integer (853 binary)

Root relaxation: objective 2.283819e+05, 634 iterations, 0.08 seconds

    Nodes    |    Current Node    |     Objective Bounds      |     Work
 Expl Unexpl |  Obj  Depth IntInf | Incumbent    BestBd   Gap | It/Node Time

     0     0 228381.911    0   31 177207.000 228381.911  28.9%     -    0s
H    0     0                    195582.00000 228381.911  16.8%     -    1s
     0     0 221373.347    0   39 195582.000 221373.347  13.2%     -    1s
     0     0 217102.333    0   23 195582.000 217102.333  11.0%     -    1s
     0     0 216734.606    0   40 195582.000 216734.606  10.8%     -    1s
     0     0 215840.143    0   30 195582.000 215840.143  10.4%     -    1s
     0     0 215840.143    0   32 195582.000 215840.143  10.4%     -    2s
     0     0 214262.727    0   24 195582.000 214262.727  9.55%     -    2s
     0     0 214262.727    0   48 195582.000 214262.727  9.55%     -    3s
     0     0 214262.727    0    9 195582.000 214262.727  9.55%     -    3s
     0     0 214066.923    0   23 195582.000 214066.923  9.45%     -    3s
     0     0 214066.923    0   22 195582.000 214066.923  9.45%     -    3s
     0     0 213544.867    0   34 195582.000 213544.867  9.18%     -    3s
     0     0 213281.750    0   30 195582.000 213281.750  9.05%     -    3s
     0     0 213014.000    0   10 195582.000 213014.000  8.91%     -    4s
     0     0 212849.156    0   28 195582.000 212849.156  8.83%     -    4s
     0     0 212688.479    0   32 195582.000 212688.479  8.75%     -    4s
     0     0 212649.309    0   31 195582.000 212649.309  8.73%     -    4s
     0     0 212424.384    0   33 195582.000 212424.384  8.61%     -    4s
     0     0 212422.438    0   41 195582.000 212422.438  8.61%     -    4s
     0     0 212422.438    0   39 195582.000 212422.438  8.61%     -    4s
     0     0 212161.606    0   39 195582.000 212161.606  8.48%     -    4s
     0     0 212079.500    0   10 195582.000 212079.500  8.44%     -    4s
     0     0 212063.549    0   41 195582.000 212063.549  8.43%     -    4s
     0     0 212041.071    0   38 195582.000 212041.071  8.42%     -    4s
     0     0 212038.103    0   40 195582.000 212038.103  8.41%     -    4s
     0     0 212034.073    0   39 195582.000 212034.073  8.41%     -    4s
     0     0 209459.667    0   43 195582.000 209459.667  7.10%     -    4s
     0     0 209175.800    0   43 195582.000 209175.800  6.95%     -    4s
     0     0 209175.800    0   53 195582.000 209175.800  6.95%     -    4s
     0     0 209141.714    0   46 195582.000 209141.714  6.93%     -    4s
     0     0 208449.000    0   47 195582.000 208449.000  6.58%     -    4s
     0     0 208298.500    0   45 195582.000 208298.500  6.50%     -    4s
     0     0 208298.500    0   46 195582.000 208298.500  6.50%     -    4s
     0     0 208148.000    0   46 195582.000 208148.000  6.42%     -    4s
     0     0 206224.000    0   45 195582.000 206224.000  5.44%     -    5s
     0     0 202827.000    0   48 195582.000 202827.000  3.70%     -    5s
     0     0 202827.000    0   46 195582.000 202827.000  3.70%     -    5s
     0     0 202827.000    0   46 195582.000 202827.000  3.70%     -    5s
     0     0 202827.000    0   47 195582.000 202827.000  3.70%     -    5s
     0     0 202827.000    0   48 195582.000 202827.000  3.70%     -    5s
     0     0 196130.333    0   49 195582.000 196130.333  0.28%     -    5s
     0     0 195720.333    0   49 195582.000 195720.333  0.07%     -    5s
     0     0 195720.333    0   49 195582.000 195720.333  0.07%     -    5s
     0     2 195720.333    0   49 195582.000 195720.333  0.07%     -    6s

Cutting planes:
  Gomory: 3
  Clique: 18
  Zero half: 11
  Mod-K: 1

Explored 174 nodes (5191 simplex iterations) in 6.43 seconds
Thread count was 8 (of 8 available processors)

Solution count 2: 195582 177207 

Optimal solution found (tolerance 1.00e-04)
Best objective 1.955820000000e+05, best bound 1.955820000000e+05, gap 0.0000%
Obj: 195582
